c 210_4_checker_5cl.cnf
c
c field = 210
c formula set type = 4_checker_5cl
c
p cnf 5 6
410 
412 
414 
416 
-408 
411 
413 
415 
417 
-409 
328 
358 
388 
448 
-298 
329 
359 
389 
449 
-299 
290 
322 
354 
386 
-258 
291 
323 
355 
387 
-259 
